\* Problem: Unknown *\

Maximize
 obj: + xp_0_0 + xp_1_0 + xp_1_1 + xp_2_0 + xp_2_1 + xp_3_0 + xp_3_1
 + xp_4_0 + xp_4_1 + xp_5_0 + xp_6_0 + xp_7_0 + xp_8_0 + xp_9_0 + xp_9_1
 + xp_10_0 + xp_11_0 + xp_11_1 + xp_12_0 + xp_12_1 + xp_13_0 + xp_13_1
 + xp_14_0 + xp_14_1 + xp_15_0 + xp_16_0 + xp_17_0 + xp_17_1 + xp_18_0
 + xp_18_1 + xp_18_2 + xp_19_0 + xp_19_1 + xp_20_0 + xp_21_0 + xp_22_0
 + xp_22_1 + xp_23_0 + xp_24_0 + xp_24_1 + xp_24_2 + xp_24_3 + xp_25_0
 + xp_26_0 + xp_26_1 + xp_26_2 + xp_27_0 + xp_28_0 + xp_29_0 + xp_30_0
 + xp_30_1 + xp_31_0 + xp_32_0 + xp_32_1 + xp_33_0 + xp_34_0 + xp_34_1
 + xp_35_0 + xp_36_0 + xp_37_0 + xp_38_0 + xp_38_1 + xp_39_0 + xp_40_0
 + xp_40_1 + xp_41_0 + xp_41_1 + xp_42_0 + xp_42_1 + xp_43_0 + xp_44_0
 + xp_45_0 + xp_45_1 + xp_45_2 + xp_46_0 + xp_47_0 + xp_48_0 + xp_48_1
 + xp_49_0 + xp_50_0 + xp_50_1 + xp_51_0 + xp_52_0 + xp_53_0 + xp_53_1
 + xp_54_0 + xp_55_0 + xp_56_0 + xp_57_0 + xp_58_0 + xp_58_1 + xp_59_0
 + xp_60_0 + xp_60_1 + xp_61_0 + xp_61_1 + xp_62_0 + xp_63_0 + xp_63_1
 + xp_64_0 + xp_65_0 + xp_66_0 + xp_67_0 + xp_68_0 + xp_68_1 + xp_68_2
 + xp_69_0 + xp_70_0 + xp_71_0 + xp_72_0 + xp_73_0 + xp_74_0 + xp_75_0
 + xp_76_0 + xp_77_0 + xp_77_1 + xp_78_0 + xp_78_1 + xp_78_2 + xp_79_0
 + xp_79_1 + xp_79_2 + xp_80_0 + xp_80_1 + xp_81_0 + xp_81_1 + xp_82_0
 + xp_82_1 + xp_82_2 + xp_83_0 + xp_83_1 + xp_84_0 + xp_85_0 + xp_85_1
 + xp_85_2 + xp_85_3 + xp_86_0 + xp_86_1 + xp_87_0 + xp_88_0 + xp_88_1
 + xp_89_0 + xp_90_0 + xp_90_1 + xp_90_2 + xp_91_0 + xp_91_1 + xp_91_2
 + xp_92_0 + xp_92_1 + xp_92_2 + xp_93_0 + xp_94_0 + xp_94_1 + xp_95_0
 + xp_95_1 + xp_95_2 + xp_96_0 + xp_96_1 + xp_97_0 + xp_98_0 + xp_98_1
 + xp_98_2 + xp_98_3 + xp_99_0 + xp_99_1 + xp_99_2 + xp_100_0 + xp_101_0
 + xp_102_0 + xp_103_0 + xp_104_0 + xp_104_1 + xp_105_0 + xp_105_1
 + xp_106_0 + xp_106_1 + xp_107_0 + xp_108_0 + xp_108_1 + xp_109_0
 + xp_109_1 + xp_110_0 + xp_111_0 + xp_112_0 + xp_113_0 + xp_114_0
 + xp_115_0 + xp_115_1 + xp_116_0 + xp_116_1 + xp_117_0 + xp_118_0
 + xp_119_0 + xp_119_1 + xp_119_2 + xp_120_0 + xp_120_1 + xp_121_0
 + xp_122_0 + xp_123_0 + xp_124_0 + xp_125_0 + xp_125_1 + xp_126_0
 + xp_126_1 + xp_126_2 + xp_127_0 + xp_127_1 + xp_128_0 + xp_128_1
 + xp_129_0 + xp_129_1 + xp_130_0 + xp_131_0 + xp_131_1 + xp_131_2

Subject To
 r_1: + xp_128_1 + xp_122_0 + xp_121_0 + xp_108_1 + xp_107_0 + xp_78_2
 + xp_40_1 + xp_25_0 + xp_22_1 + xp_18_2 + xp_18_1 + xp_16_0 + xp_13_1
 + xp_4_0 <= 38512.6859142607
 r_2: + xp_131_2 + xp_131_0 + xp_127_0 + xp_126_1 + xp_120_0 + xp_93_0
 + xp_90_2 + xp_85_3 + xp_85_2 + xp_85_1 + xp_85_0 + xp_77_1 + xp_75_0
 + xp_71_0 + xp_66_0 + xp_65_0 + xp_61_1 + xp_55_0 + xp_52_0 + xp_48_1
 + xp_48_0 + xp_42_1 + xp_38_1 + xp_32_0 + xp_28_0 + xp_24_3 + xp_24_1
 + xp_24_0 + xp_19_1 + xp_19_0 + xp_12_1 + xp_1_1 <= 35044.6949086669
 r_3: + xp_114_0 + xp_105_1 + xp_98_3 + xp_95_1 + xp_94_1 + xp_92_2
 + xp_91_1 + xp_85_3 + xp_83_1 + xp_79_1 + xp_76_0 + xp_68_2 + xp_41_1
 + xp_34_0 + xp_26_2 + xp_24_3 <= 37422.3826714801
 r_4: + xp_117_0 + xp_104_1 + xp_95_2 + xp_95_0 + xp_91_2 + xp_91_0
 + xp_88_1 + xp_84_0 + xp_82_2 + xp_79_2 + xp_79_0 + xp_46_0 + xp_43_0
 + xp_40_1 + xp_40_0 + xp_34_1 <= 35798.3193277311
 r_5: + xp_130_0 + xp_104_1 + xp_99_0 + xp_88_1 + xp_82_2 + xp_7_0
 + xp_2_0 <= 37422.3826714801
 r_6: + xp_126_2 + xp_119_0 + xp_114_0 + xp_95_1 + xp_92_2 + xp_92_1
 + xp_91_1 + xp_83_1 + xp_83_0 + xp_82_1 + xp_81_0 + xp_79_1 + xp_70_0
 + xp_68_2 + xp_68_1 + xp_58_1 + xp_53_0 + xp_48_1 + xp_45_0 + xp_34_0
 + xp_32_1 + xp_30_1 + xp_18_1 <= 39327.3986152324
 r_7: + xp_119_2 + xp_119_1 + xp_104_0 + xp_88_0 + xp_82_0 + xp_81_1
 + xp_78_1 + xp_53_1 + xp_50_1 + xp_45_2 + xp_45_1 + xp_44_0 + xp_27_0
 + xp_18_2 + xp_18_0 + xp_4_1 + xp_3_1 <= 35798.3193277311
 r_8: + xp_131_2 + xp_131_0 + xp_127_0 + xp_126_1 + xp_120_0 + xp_118_0
 + xp_103_0 + xp_90_2 + xp_77_1 + xp_71_0 + xp_61_1 + xp_55_0 + xp_42_1
 + xp_38_1 + xp_32_0 + xp_24_3 + xp_24_1 + xp_24_0 + xp_12_1 + xp_1_1
 <= 38512.6859142607
 r_9: + xp_131_1 + xp_127_1 + xp_122_0 + xp_120_1 + xp_108_1 + xp_78_2
 + xp_77_0 + xp_42_0 + xp_33_0 + xp_32_1 + xp_24_2 <= 40000
 r_10: + xp_106_0 + xp_99_0 + xp_98_0 + xp_88_1 + xp_88_0 + xp_85_0
 + xp_78_1 + xp_50_1 + xp_26_0 + xp_24_0 + xp_8_0 + xp_7_0 + xp_4_1
 + xp_3_1 + xp_2_0 <= 39327.3986152324
 r_11: + xp_119_0 + xp_112_0 + xp_111_0 + xp_95_1 + xp_91_1 + xp_82_1
 + xp_81_0 + xp_79_1 + xp_78_2 + xp_78_0 + xp_59_0 + xp_53_0 + xp_50_0
 + xp_49_0 + xp_45_0 + xp_34_0 + xp_18_1 + xp_4_0 + xp_3_0
 <= 36378.8140472078
 r_12: + xp_129_1 + xp_128_0 + xp_123_0 + xp_119_1 + xp_117_0 + xp_101_0
 + xp_95_0 + xp_91_2 + xp_82_2 + xp_82_0 + xp_81_1 + xp_80_1 + xp_79_2
 + xp_78_1 + xp_78_0 + xp_73_0 + xp_63_1 + xp_60_1 + xp_50_1 + xp_46_0
 + xp_45_1 + xp_44_0 + xp_40_0 + xp_18_0 + xp_17_1 + xp_15_0 + xp_14_0
 + xp_13_0 + xp_9_0 + xp_4_1 <= 35917.2202350537
 r_13: + xp_129_0 + xp_128_1 + xp_120_1 + xp_119_2 + xp_109_1 + xp_100_0
 + xp_96_1 + xp_95_2 + xp_91_0 + xp_90_0 + xp_80_0 + xp_79_0 + xp_68_0
 + xp_63_0 + xp_60_0 + xp_53_1 + xp_45_2 + xp_40_1 + xp_34_1 + xp_31_0
 + xp_30_0 + xp_18_2 + xp_17_0 + xp_13_1 + xp_9_1 <= 36378.8140472078
 r_14: + xp_131_2 + xp_131_1 + xp_131_0 + xp_126_2 + xp_125_1 + xp_125_0
 + xp_124_0 + xp_115_1 + xp_115_0 + xp_106_1 + xp_99_2 + xp_99_1
 + xp_98_3 + xp_98_2 + xp_98_1 + xp_94_1 + xp_94_0 + xp_92_2 + xp_92_1
 + xp_86_1 + xp_86_0 + xp_85_3 + xp_85_2 + xp_85_1 + xp_77_1 + xp_77_0
 + xp_68_2 + xp_68_1 + xp_65_0 + xp_58_1 + xp_56_0 + xp_51_0 + xp_48_1
 + xp_41_1 + xp_41_0 + xp_38_1 + xp_38_0 + xp_35_0 + xp_32_1 + xp_30_1
 + xp_26_2 + xp_26_1 + xp_24_3 + xp_24_2 + xp_24_1 + xp_20_0 + xp_19_1
 + xp_19_0 + xp_12_1 + xp_12_0 + xp_2_1 + xp_0_0 <= 35798.3193277311
 r_15: + xp_131_1 + xp_131_0 + xp_126_2 + xp_125_0 + xp_124_0 + xp_120_1
 + xp_116_0 + xp_115_0 + xp_109_1 + xp_99_1 + xp_98_3 + xp_98_1
 + xp_96_1 + xp_94_1 + xp_94_0 + xp_92_2 + xp_92_1 + xp_90_0 + xp_89_0
 + xp_86_0 + xp_85_3 + xp_85_1 + xp_77_1 + xp_77_0 + xp_68_2 + xp_68_1
 + xp_68_0 + xp_65_0 + xp_58_1 + xp_51_0 + xp_48_1 + xp_42_1 + xp_42_0
 + xp_38_1 + xp_38_0 + xp_36_0 + xp_32_1 + xp_28_0 + xp_26_2 + xp_26_1
 + xp_24_2 + xp_24_1 + xp_19_1 + xp_12_0 + xp_11_1 + xp_0_0
 <= 35917.2202350537
 r_16: + xp_128_0 + xp_123_0 + xp_108_0 + xp_78_1 + xp_78_0 + xp_73_0
 + xp_67_0 + xp_57_0 + xp_46_0 + xp_44_0 + xp_40_0 + xp_22_0 + xp_18_0
 + xp_13_0 + xp_6_0 + xp_4_1 <= 35917.2202350537
 r_17: + xp_129_1 + xp_126_0 + xp_119_1 + xp_109_0 + xp_97_0 + xp_95_0
 + xp_91_2 + xp_90_1 + xp_81_1 + xp_80_1 + xp_79_2 + xp_63_1 + xp_62_0
 + xp_61_0 + xp_60_1 + xp_47_0 + xp_45_1 + xp_22_1 + xp_17_1 + xp_9_0
 + xp_1_0 <= 35044.6949086669
 r_18: + xp_126_1 + xp_126_0 + xp_106_0 + xp_99_0 + xp_98_0 + xp_92_0
 + xp_85_0 + xp_68_0 + xp_58_0 + xp_48_0 + xp_32_0 + xp_30_0 + xp_26_0
 + xp_24_0 + xp_5_0 + xp_2_0 <= 36378.8140472078
 r_19: + xp_131_2 + xp_125_1 + xp_116_1 + xp_115_1 + xp_110_0 + xp_106_1
 + xp_99_2 + xp_98_2 + xp_86_1 + xp_85_2 + xp_78_0 + xp_56_0 + xp_24_3
 + xp_19_0 + xp_14_0 + xp_12_1 + xp_11_0 + xp_3_0 + xp_2_1
 <= 36378.8140472078
 r_20: + xp_129_0 + xp_128_1 + xp_119_2 + xp_119_0 + xp_112_0 + xp_111_0
 + xp_108_1 + xp_108_0 + xp_107_0 + xp_95_2 + xp_95_1 + xp_91_1
 + xp_91_0 + xp_82_1 + xp_81_0 + xp_80_0 + xp_79_1 + xp_79_0 + xp_78_2
 + xp_69_0 + xp_64_0 + xp_63_0 + xp_60_0 + xp_50_0 + xp_49_0 + xp_45_2
 + xp_45_0 + xp_40_1 + xp_18_2 + xp_18_1 + xp_17_0 + xp_14_1 + xp_13_1
 + xp_10_0 + xp_9_1 + xp_4_0 <= 35044.6949086669
 r_21: + xp_113_0 + xp_105_1 + xp_99_2 + xp_99_1 + xp_98_3 + xp_94_1
 + xp_92_2 + xp_86_1 + xp_86_0 + xp_85_3 + xp_83_1 + xp_77_1 + xp_77_0
 + xp_68_2 + xp_65_0 + xp_41_1 + xp_38_1 + xp_38_0 + xp_26_2 + xp_24_3
 + xp_20_0 + xp_2_1 + xp_0_0 <= 35798.3193277311
 r_22: + xp_126_2 + xp_124_0 + xp_106_1 + xp_105_0 + xp_98_2 + xp_98_1
 + xp_94_0 + xp_92_1 + xp_85_2 + xp_85_1 + xp_83_0 + xp_68_1 + xp_58_1
 + xp_48_1 + xp_41_0 + xp_32_1 + xp_30_1 + xp_26_1 + xp_24_2 + xp_24_1
 <= 35798.3193277311
 r_23: + xp_128_1 + xp_128_0 + xp_119_2 + xp_119_1 + xp_117_0 + xp_104_1
 + xp_104_0 + xp_100_0 + xp_95_2 + xp_95_0 + xp_91_2 + xp_91_0 + xp_84_0
 + xp_82_2 + xp_82_0 + xp_81_1 + xp_80_1 + xp_80_0 + xp_79_2 + xp_79_0
 + xp_78_1 + xp_73_0 + xp_60_1 + xp_60_0 + xp_53_1 + xp_50_1 + xp_46_0
 + xp_45_2 + xp_45_1 + xp_44_0 + xp_40_1 + xp_40_0 + xp_34_1 + xp_21_0
 + xp_18_2 + xp_18_0 + xp_15_0 + xp_9_1 + xp_9_0 + xp_4_1 + xp_3_1
 <= 35798.3193277311
 r_24: + xp_128_0 + xp_126_1 + xp_103_0 + xp_90_2 + xp_61_1 + xp_40_0
 + xp_39_0 + xp_38_1 + xp_22_0 + xp_18_0 + xp_13_0 + xp_12_1 + xp_4_1
 + xp_1_1 <= 40000
 r_25: + xp_131_1 + xp_127_1 + xp_126_2 + xp_126_0 + xp_120_1 + xp_94_1
 + xp_94_0 + xp_90_1 + xp_90_0 + xp_89_0 + xp_77_0 + xp_74_0 + xp_61_0
 + xp_42_0 + xp_38_0 + xp_32_1 + xp_24_2 + xp_12_0 + xp_1_0
 <= 35917.2202350537
 r_26: + xp_128_1 + xp_121_0 + xp_112_0 + xp_108_1 + xp_107_0 + xp_81_1
 + xp_81_0 + xp_79_2 + xp_79_1 + xp_79_0 + xp_78_2 + xp_64_0 + xp_60_1
 + xp_60_0 + xp_47_0 + xp_40_1 + xp_37_0 + xp_29_0 + xp_25_0 + xp_22_1
 + xp_18_2 + xp_18_1 + xp_17_1 + xp_17_0 + xp_13_1 + xp_4_0
 <= 35044.6949086669
 r_27: + xp_131_0 + xp_127_0 + xp_125_0 + xp_116_0 + xp_115_0 + xp_108_0
 + xp_99_1 + xp_98_3 + xp_98_1 + xp_96_1 + xp_92_2 + xp_92_1 + xp_86_0
 + xp_85_3 + xp_85_1 + xp_82_1 + xp_77_1 + xp_72_0 + xp_67_0 + xp_65_0
 + xp_58_1 + xp_57_0 + xp_52_0 + xp_50_0 + xp_48_1 + xp_42_1 + xp_38_1
 + xp_28_0 + xp_26_2 + xp_26_1 + xp_24_1 + xp_23_0 + xp_19_1 + xp_14_1
 + xp_11_1 <= 35044.6949086669
 r_28: + xp_131_2 + xp_126_1 + xp_126_0 + xp_125_1 + xp_120_0 + xp_116_1
 + xp_115_1 + xp_109_0 + xp_99_2 + xp_99_0 + xp_98_2 + xp_98_0 + xp_96_0
 + xp_92_0 + xp_90_2 + xp_90_1 + xp_86_1 + xp_85_2 + xp_85_0 + xp_75_0
 + xp_58_0 + xp_54_0 + xp_48_0 + xp_32_0 + xp_26_0 + xp_24_3 + xp_24_0
 + xp_19_0 + xp_12_1 + xp_11_0 <= 35044.6949086669
 r_29: + xp_129_1 + xp_129_0 + xp_95_2 + xp_95_1 + xp_95_0 + xp_93_0
 + xp_87_0 + xp_71_0 + xp_62_0 + xp_49_0 + xp_45_2 + xp_45_1 + xp_45_0
 + xp_10_0 + xp_9_1 + xp_9_0 + xp_1_1 + xp_1_0 <= 35044.6949086669
 r_30: + xp_125_1 + xp_125_0 + xp_121_0 + xp_102_0 + xp_99_2 + xp_99_1
 + xp_99_0 + xp_96_1 + xp_96_0 + xp_92_2 + xp_92_1 + xp_92_0 + xp_57_0
 + xp_37_0 + xp_26_2 + xp_26_1 + xp_26_0 + xp_23_0 + xp_11_1 + xp_11_0
 <= 35044.6949086669

Bounds
 0 <= xp_0_0 <= 223.672902746335
 0 <= xp_1_0 <= 103.839207923019
 0 <= xp_1_1 <= 69.226138615346
 0 <= xp_2_0 <= 21.8049840945449
 0 <= xp_2_1 <= 87.2199363781796
 0 <= xp_3_0 <= 69.1261730722192
 0 <= xp_3_1 <= 103.689259608329
 0 <= xp_4_0 <= 598.243792842654
 0 <= xp_4_1 <= 149.560948210664
 0 <= xp_5_0 <= 1026.95852023506
 0 <= xp_6_0 <= 1698.6020131186
 0 <= xp_7_0 <= 605.041449775281
 0 <= xp_8_0 <= 1431.13170678982
 0 <= xp_9_0 <= 41.0358554535733
 0 <= xp_9_1 <= 61.55378318036
 0 <= xp_10_0 <= 51.9820824259638
 0 <= xp_11_0 <= 15.7445730424794
 0 <= xp_11_1 <= 23.6168595637191
 0 <= xp_12_0 <= 1567.60966454375
 0 <= xp_12_1 <= 391.902416135938
 0 <= xp_13_0 <= 143.313101765235
 0 <= xp_13_1 <= 95.5420678434902
 0 <= xp_14_0 <= 83.3962543535775
 0 <= xp_14_1 <= 125.094381530366
 0 <= xp_15_0 <= 480.709305511257
 0 <= xp_16_0 <= 2503.44959221868
 0 <= xp_17_0 <= 225.272351436364
 0 <= xp_17_1 <= 56.3180878590911
 0 <= xp_18_0 <= 204.192117529489
 0 <= xp_18_1 <= 68.0640391764964
 0 <= xp_18_2 <= 68.0640391764964
 0 <= xp_19_0 <= 401.41163842588
 0 <= xp_19_1 <= 602.11745763882
 0 <= xp_20_0 <= 121.583091828036
 0 <= xp_21_0 <= 260.22280445209
 0 <= xp_22_0 <= 700.820935783697
 0 <= xp_22_1 <= 467.213957189131
 0 <= xp_23_0 <= 49.2955084544296
 0 <= xp_24_0 <= 64.5902365528382
 0 <= xp_24_1 <= 64.5902365528382
 0 <= xp_24_2 <= 129.180473105676
 0 <= xp_24_3 <= 64.5902365528382
 0 <= xp_25_0 <= 548.748353301971
 0 <= xp_26_0 <= 2.91149644356961
 0 <= xp_26_1 <= 8.73448933070882
 0 <= xp_26_2 <= 2.91149644356961
 0 <= xp_27_0 <= 320.389565721565
 0 <= xp_28_0 <= 632.906844921891
 0 <= xp_29_0 <= 2321.07495447663
 0 <= xp_30_0 <= 69.5510266305083
 0 <= xp_30_1 <= 104.326539945762
 0 <= xp_31_0 <= 180.750197666242
 0 <= xp_32_0 <= 1280.8210170057
 0 <= xp_32_1 <= 853.8806780038
 0 <= xp_33_0 <= 7642.80312129913
 0 <= xp_34_0 <= 193.783205351405
 0 <= xp_34_1 <= 290.674808027108
 0 <= xp_35_0 <= 247.539676167871
 0 <= xp_36_0 <= 302.458246423186
 0 <= xp_37_0 <= 346.005736147821
 0 <= xp_38_0 <= 254.012445085335
 0 <= xp_38_1 <= 63.5031112713337
 0 <= xp_39_0 <= 1492.1106880972
 0 <= xp_40_0 <= 483.170957010755
 0 <= xp_40_1 <= 322.113971340503
 0 <= xp_41_0 <= 60.6291019064366
 0 <= xp_41_1 <= 15.1572754766092
 0 <= xp_42_0 <= 172.290613579132
 0 <= xp_42_1 <= 258.435920368698
 0 <= xp_43_0 <= 466.651651009043
 0 <= xp_44_0 <= 434.912591066267
 0 <= xp_45_0 <= 24.2166528224802
 0 <= xp_45_1 <= 8.07221760749342
 0 <= xp_45_2 <= 8.07221760749342
 0 <= xp_46_0 <= 1522.66265721534
 0 <= xp_47_0 <= 833.587672749049
 0 <= xp_48_0 <= 2205.18989860682
 0 <= xp_48_1 <= 551.297474651706
 0 <= xp_49_0 <= 83.5337069753769
 0 <= xp_50_0 <= 595.094878234159
 0 <= xp_50_1 <= 148.77371955854
 0 <= xp_51_0 <= 672.955540637087
 0 <= xp_52_0 <= 628.22096008782
 0 <= xp_53_0 <= 108.075247813019
 0 <= xp_53_1 <= 72.0501652086796
 0 <= xp_54_0 <= 3502.98006655831
 0 <= xp_55_0 <= 1124.05005399701
 0 <= xp_56_0 <= 90.8436873165281
 0 <= xp_57_0 <= 195.432636812998
 0 <= xp_58_0 <= 2587.20822166609
 0 <= xp_58_1 <= 1724.80548111073
 0 <= xp_59_0 <= 10095.3327649876
 0 <= xp_60_0 <= 514.322719387661
 0 <= xp_60_1 <= 128.580679846915
 0 <= xp_61_0 <= 1377.16280919421
 0 <= xp_61_1 <= 918.108539462804
 0 <= xp_62_0 <= 124.457101192933
 0 <= xp_63_0 <= 100.015525898417
 0 <= xp_63_1 <= 25.0038814746042
 0 <= xp_64_0 <= 943.112420937408
 0 <= xp_65_0 <= 495.454223122467
 0 <= xp_66_0 <= 1593.38827897759
 0 <= xp_67_0 <= 383.742728678209
 0 <= xp_68_0 <= 279.478667196901
 0 <= xp_68_1 <= 838.436001590702
 0 <= xp_68_2 <= 279.478667196901
 0 <= xp_69_0 <= 1630.0006591478
 0 <= xp_70_0 <= 599.105995652124
 0 <= xp_71_0 <= 67.2268277528089
 0 <= xp_72_0 <= 568.179155747253
 0 <= xp_73_0 <= 875.448243933419
 0 <= xp_74_0 <= 904.125859117935
 0 <= xp_75_0 <= 1673.11079962126
 0 <= xp_76_0 <= 1633.37449622833
 0 <= xp_77_0 <= 434.150353799925
 0 <= xp_77_1 <= 108.537588449981
 0 <= xp_78_0 <= 5310.28211213447
 0 <= xp_78_1 <= 15930.8463364034
 0 <= xp_78_2 <= 5310.28211213447
 0 <= xp_79_0 <= 606.465958764838
 0 <= xp_79_1 <= 202.155319588279
 0 <= xp_79_2 <= 202.155319588279
 0 <= xp_80_0 <= 171.141009833173
 0 <= xp_80_1 <= 42.7852524582933
 0 <= xp_81_0 <= 198.031740934297
 0 <= xp_81_1 <= 49.5079352335742
 0 <= xp_82_0 <= 83.4212457393592
 0 <= xp_82_1 <= 83.4212457393592
 0 <= xp_82_2 <= 41.7106228696796
 0 <= xp_83_0 <= 382.468168003341
 0 <= xp_83_1 <= 95.6170420008353
 0 <= xp_84_0 <= 844.521404028549
 0 <= xp_85_0 <= 77.5607657735474
 0 <= xp_85_1 <= 155.121531547095
 0 <= xp_85_2 <= 77.5607657735474
 0 <= xp_85_3 <= 77.5607657735474
 0 <= xp_86_0 <= 130.155137151163
 0 <= xp_86_1 <= 32.5387842877908
 0 <= xp_87_0 <= 134.078784718892
 0 <= xp_88_0 <= 242.12904114613
 0 <= xp_88_1 <= 161.419360764087
 0 <= xp_89_0 <= 2107.6485199008
 0 <= xp_90_0 <= 12358.4776872222
 0 <= xp_90_1 <= 4119.49256240739
 0 <= xp_90_2 <= 4119.49256240739
 0 <= xp_91_0 <= 1549.67834524537
 0 <= xp_91_1 <= 516.559448415124
 0 <= xp_91_2 <= 516.559448415124
 0 <= xp_92_0 <= 38.0868719313312
 0 <= xp_92_1 <= 12.6956239771104
 0 <= xp_92_2 <= 12.6956239771104
 0 <= xp_93_0 <= 123.83231654839
 0 <= xp_94_0 <= 180.037943171463
 0 <= xp_94_1 <= 45.0094857928658
 0 <= xp_95_0 <= 23.2919715485569
 0 <= xp_95_1 <= 23.2919715485569
 0 <= xp_95_2 <= 11.6459857742784
 0 <= xp_96_0 <= 87.6697813222505
 0 <= xp_96_1 <= 21.9174453305626
 0 <= xp_97_0 <= 500.827371065536
 0 <= xp_98_0 <= 27.1656363447224
 0 <= xp_98_1 <= 54.3312726894448
 0 <= xp_98_2 <= 27.1656363447224
 0 <= xp_98_3 <= 27.1656363447224
 0 <= xp_99_0 <= 3.11142752982331
 0 <= xp_99_1 <= 9.33428258946994
 0 <= xp_99_2 <= 3.11142752982331
 0 <= xp_100_0 <= 477.897774610814
 0 <= xp_101_0 <= 237.418164926277
 0 <= xp_102_0 <= 71.2254494778831
 0 <= xp_103_0 <= 1368.02845769099
 0 <= xp_104_0 <= 100.265439756234
 0 <= xp_104_1 <= 25.0663599390585
 0 <= xp_105_0 <= 1102.12011297356
 0 <= xp_105_1 <= 275.53002824339
 0 <= xp_106_0 <= 7.87228652123971
 0 <= xp_106_1 <= 31.4891460849588
 0 <= xp_107_0 <= 427.352696867299
 0 <= xp_108_0 <= 484.070646898897
 0 <= xp_108_1 <= 322.713764599265
 0 <= xp_109_0 <= 551.135030644125
 0 <= xp_109_1 <= 367.42335376275
 0 <= xp_110_0 <= 126.581368984378
 0 <= xp_111_0 <= 2779.29201278434
 0 <= xp_112_0 <= 4448.27923375162
 0 <= xp_113_0 <= 404.235665019214
 0 <= xp_114_0 <= 2278.46464171881
 0 <= xp_115_0 <= 167.942112453114
 0 <= xp_115_1 <= 41.9855281132784
 0 <= xp_116_0 <= 121.408152127564
 0 <= xp_116_1 <= 30.3520380318909
 0 <= xp_117_0 <= 1846.55101694635
 0 <= xp_118_0 <= 2997.71672451652
 0 <= xp_119_0 <= 35.8001601323044
 0 <= xp_119_1 <= 11.9333867107681
 0 <= xp_119_2 <= 11.9333867107681
 0 <= xp_120_0 <= 1649.33149604995
 0 <= xp_120_1 <= 412.332874012489
 0 <= xp_121_0 <= 71.7877556579716
 0 <= xp_122_0 <= 2161.56743472484
 0 <= xp_123_0 <= 488.269199710225
 0 <= xp_124_0 <= 130.829904567269
 0 <= xp_125_0 <= 20.7428501988221
 0 <= xp_125_1 <= 5.18571254970552
 0 <= xp_126_0 <= 4823.22499463466
 0 <= xp_126_1 <= 9646.44998926932
 0 <= xp_126_2 <= 9646.44998926932
 0 <= xp_127_0 <= 328.874141194457
 0 <= xp_127_1 <= 219.249427462971
 0 <= xp_128_0 <= 154.371789973643
 0 <= xp_128_1 <= 231.557684960465
 0 <= xp_129_0 <= 37.2371648147529
 0 <= xp_129_1 <= 9.30929120368823
 0 <= xp_130_0 <= 383.555293284846
 0 <= xp_131_0 <= 291.824411773067
 0 <= xp_131_1 <= 291.824411773067
 0 <= xp_131_2 <= 145.912205886533

End
